<instance format="XCSP3" type="CSP">
  <variables>
    <var id="x0"> 1 8 </var>
    <var id="x1"> 1 4 8 11 12 </var>
    <var id="x2"> 4 7 11 </var>
    <var id="x3"> 0 7 8 12 </var>
    <var id="x4"> 8 11 12 </var>
    <var id="x5"> 1 4 11 12 </var>
    <var id="x6"> 4 12 </var>
    <var id="x7"> 9 13 14 </var>
    <var id="x8"> 8 12..14 </var>
    <var id="x9"> 1 9 14 </var>
    <var id="x10"> 1 9 12 13 </var>
    <var id="x11"> 8 9 13 </var>
    <var id="x12"> 6 8 12..14 </var>
    <var id="x13"> 1 12..14 </var>
    <var id="x14"> 1..3 7 </var>
    <var id="x15"> 4 7 11 13 </var>
    <var id="x16"> 3 7 11 </var>
    <var id="x17"> 1 4 7 11 </var>
    <var id="x18"> 1 4 7 13 </var>
    <var id="x19"> 11 13 </var>
    <var id="x20"> 1 4 13 </var>
    <var id="x21"> 0 1 9 </var>
    <var id="x22"> 6 9 11 14 </var>
    <var id="x23"> 1 6 9 13 </var>
    <var id="x24"> 9 11 13 14 </var>
    <var id="x25"> 1 9 13 </var>
    <var id="x26"> 0 9 13 </var>
    <var id="x27"> 1 11 13 14 </var>
    <var id="x28"> 2 7 10 </var>
    <var id="x29"> 2 8 10 13 </var>
    <var id="x30"> 7 10 13 14 </var>
    <var id="x31"> 7 8 13 </var>
    <var id="x32"> 8 10 12..14 </var>
    <var id="x33"> 10 13 </var>
    <var id="x34"> 2 10 12 13 </var>
    <var id="x35"> 0 3 9 10 </var>
    <var id="x36"> 3 6 9 12 </var>
    <var id="x37"> 9 12 13 </var>
    <var id="x38"> 3 9 12 </var>
    <var id="x39"> 0 5 12 13 </var>
    <var id="x40"> 3 5 6 12 </var>
    <var id="x41"> 0 9 </var>
    <var id="x42"> 5 9 12 13 </var>
    <var id="x43"> 9 11 12 14 </var>
    <var id="x44"> 9 10 13 </var>
    <var id="x45"> 4 9 11..14 </var>
    <var id="x46"> 11 12 </var>
    <var id="x47"> 4 9 11 14 </var>
    <var id="x48"> 4 9 13 </var>
    <var id="x49"> 4 10 12 13 </var>
    <var id="x50"> 3 7 9 </var>
    <var id="x51"> 3 6 9 14 </var>
    <var id="x52"> 3 4 9 </var>
    <var id="x53"> 5 7 14 </var>
    <var id="x54"> 4 5 7 9 </var>
    <var id="x55"> 4..6 9 </var>
    <var id="x56"> 3 4 14 </var>
    <var id="x57"> 3 8 9 12 </var>
    <var id="x58"> 3 8 9 12 </var>
    <var id="x59"> 7 9 10 13 </var>
    <var id="x60"> 3 7 8 12 </var>
    <var id="x61"> 7 9 </var>
    <var id="x62"> 9 10 13 </var>
    <var id="x63"> 3 10 12 13 </var>
    <var id="x64"> 1 9 </var>
    <var id="x65"> 6 8 9 11 12 </var>
    <var id="x66"> 1 6 8 9 </var>
    <var id="x67"> 4 9 11 12 </var>
    <var id="x68"> 6 8 11 12 </var>
    <var id="x69"> 1 4 9 11 </var>
    <var id="x70"> 4 8 9 </var>
    <var id="x71"> 2 3 9 11 </var>
    <var id="x72"> 4 9 11 13 </var>
    <var id="x73"> 1 3 4 9 11 </var>
    <var id="x74"> 13 </var>
    <var id="x75"> 1 4 9 13 </var>
    <var id="x76"> 3 4 9 13 </var>
    <var id="x77"> 1 4 9 13 </var>
    <var id="x78"> 0 3 7 </var>
    <var id="x79"> 4 7 13 14 </var>
    <var id="x80"> 3 5 7 </var>
    <var id="x81"> 0 3 4 7 13 </var>
    <var id="x82"> 13 14 </var>
    <var id="x83"> 3 4 13 14 </var>
    <var id="x84"> 3 4 13 </var>
    <var id="x85"> 1 2 9 10 </var>
    <var id="x86"> 1 4 9 12 </var>
    <var id="x87"> 4 9 10 </var>
    <var id="x88"> 10 12 </var>
    <var id="x89"> 1 4 5 9 10 </var>
    <var id="x90"> 1 4 12 </var>
    <var id="x91"> 2 4 10 12 </var>
    <var id="x92"> 6 8 11 12 </var>
    <var id="x93"> 6 8 10 13 </var>
    <var id="x94"> 8 11 12 </var>
    <var id="x95"> 7 10 11 13 </var>
    <var id="x96"> 7 8 12 13 </var>
    <var id="x97"> 7 12 13 </var>
    <var id="x98"> 6 10 12 13 </var>
    <var id="x99"> 4 7 9 11 14 </var>
    <var id="x100"> 7 8 14 </var>
    <var id="x101"> 3 7 8 11 </var>
    <var as="x99" id="x102"/>
    <var id="x103"> 8 11 14 </var>
    <var id="x104"> 4 9 </var>
    <var id="x105"> 3 4 11 14 </var>
  </variables>
  <constraints>
    <group>
      <allDifferent> %... </allDifferent>
      <args> x0 x1 x2 x3 x4 x5 x6 </args>
      <args> x7 x8 x9 x10 x11 x12 x13 </args>
      <args> x14 x15 x16 x17 x18 x19 x20 </args>
      <args> x21 x22 x23 x24 x25 x26 x27 </args>
      <args> x28 x29 x30 x31 x32 x33 x34 </args>
      <args> x35 x36 x37 x38 x39 x40 x41 x42 </args>
      <args> x43 x44 x45 x46 x47 x48 x49 </args>
      <args> x50 x51 x52 x53 x54 x55 x56 </args>
      <args> x57 x58 x59 x60 x61 x62 x63 </args>
      <args> x64 x65 x66 x67 x68 x69 x70 </args>
      <args> x71 x72 x73 x74 x75 x76 x77 </args>
      <args> x78 x79 x80 x81 x82 x83 x84 </args>
      <args> x85 x86 x87 x88 x89 x90 x91 </args>
      <args> x92 x93 x94 x95 x96 x97 x98 </args>
      <args> x99 x100 x101 x102 x103 x104 x105 </args>
      <args> x14 x21 x28 x35 x50 x64 x78 </args>
      <args> x22 x36 x43 x51 x57 x65 x71 x92 </args>
      <args> x0 x23 x29 x44 x66 x85 x93 </args>
      <args> x15 x37 x45 x67 x72 x79 x99 </args>
      <args> x1 x38 x52 x58 x73 x86 x94 </args>
      <args> x2 x7 x24 x30 x59 x87 x95 </args>
      <args> x3 x8 x39 x53 x74 x96 x100 </args>
      <args> x16 x40 x46 x60 x68 x80 x101 </args>
      <args> x9 x17 x41 x47 x61 x69 x102 </args>
      <args> x10 x18 x25 x42 x54 x75 x97 </args>
      <args> x11 x26 x31 x48 x70 x76 x81 </args>
      <args> x4 x12 x19 x32 x82 x88 x103 </args>
      <args> x20 x33 x55 x62 x77 x89 x104 </args>
      <args> x5 x13 x27 x56 x83 x90 x105 </args>
      <args> x6 x34 x49 x63 x84 x91 x98 </args>
    </group>
  </constraints>
</instance>

